30
1 4
1 5
1 6
1 7
1 8
1 13
1 15
1 18
1 21
1 25
1 27
1 28
2 4
2 6
2 7
2 9
2 12
2 15
2 18
2 25
2 26
2 28
2 29
2 30
3 4
3 7
3 9
3 11
3 16
3 20
3 22
3 24
3 25
3 27
3 28
3 30
4 8
4 9
4 10
4 13
4 14
4 15
4 16
4 17
4 18
4 19
4 20
4 21
4 24
4 25
4 26
5 6
5 7
5 8
5 9
5 10
5 11
5 13
5 15
5 17
5 18
5 19
5 20
5 24
6 7
6 8
6 9
6 11
6 13
6 16
6 17
6 20
6 22
6 25
6 26
6 27
6 29
7 10
7 13
7 16
7 19
7 20
7 22
7 23
7 28
7 29
7 30
8 13
8 16
8 17
8 18
8 20
8 23
8 24
8 26
8 27
8 28
8 30
9 12
9 13
9 14
9 15
9 17
9 21
9 22
9 23
9 24
9 26
9 27
9 28
9 29
9 30
10 16
10 18
10 19
10 21
10 27
10 28
11 12
11 15
11 17
11 21
11 25
11 26
11 28
12 15
12 16
12 17
12 18
12 20
12 21
12 23
12 25
12 29
13 14
13 15
13 16
13 17
13 18
13 19
13 20
13 21
13 22
13 23
13 24
13 25
13 26
13 27
13 30
14 15
14 16
14 17
14 19
14 20
14 21
14 23
14 27
14 28
14 29
14 30
15 17
15 18
15 19
15 20
15 21
15 22
15 25
15 26
15 28
15 29
16 17
16 18
16 19
16 20
16 21
16 22
16 24
16 26
16 27
16 30
17 22
17 24
17 25
17 27
17 30
18 23
18 28
19 20
19 21
19 22
19 24
19 28
19 29
20 21
20 22
20 25
20 27
20 29
21 22
21 27
21 28
22 27
22 28
22 29
22 30
23 26
23 28
23 30
24 29
25 26
25 28
26 27
26 28
26 29
27 28
27 30
29 30
